(set-info :category "industrial")
(set-info :status sat)
(declare-fun x02 () (_ BitVec 8))
(declare-fun x03 () (_ BitVec 8))
(declare-fun x04 () (_ BitVec 8))
(declare-fun x05 () (_ BitVec 8))
(declare-fun x07 () (_ BitVec 8))
(declare-fun x08 () (_ BitVec 8))
(declare-fun x10 () (_ BitVec 8))
(declare-fun x11 () (_ BitVec 8))
(declare-fun x12 () (_ BitVec 8))
(declare-fun x15 () (_ BitVec 8))
(declare-fun x16 () (_ BitVec 8))
(declare-fun x21 () (_ BitVec 8))
(declare-fun x22 () (_ BitVec 8))
(declare-fun x24 () (_ BitVec 8))
(declare-fun x26 () (_ BitVec 8))
(declare-fun x30 () (_ BitVec 8))
(declare-fun x31 () (_ BitVec 8))
(declare-fun x33 () (_ BitVec 8))
(declare-fun x35 () (_ BitVec 8))
(declare-fun x36 () (_ BitVec 8))
(declare-fun x37 () (_ BitVec 8))
(declare-fun x41 () (_ BitVec 8))
(declare-fun x43 () (_ BitVec 8))
(declare-fun x45 () (_ BitVec 8))
(declare-fun x48 () (_ BitVec 8))
(declare-fun x50 () (_ BitVec 8))
(declare-fun x52 () (_ BitVec 8))
(declare-fun x53 () (_ BitVec 8))
(declare-fun x54 () (_ BitVec 8))
(declare-fun x55 () (_ BitVec 8))
(declare-fun x56 () (_ BitVec 8))
(declare-fun x58 () (_ BitVec 8))
(declare-fun x62 () (_ BitVec 8))
(declare-fun x63 () (_ BitVec 8))
(declare-fun x64 () (_ BitVec 8))
(declare-fun x66 () (_ BitVec 8))
(declare-fun x67 () (_ BitVec 8))
(declare-fun x68 () (_ BitVec 8))
(declare-fun x70 () (_ BitVec 8))
(declare-fun x72 () (_ BitVec 8))
(declare-fun x74 () (_ BitVec 8))
(declare-fun x75 () (_ BitVec 8))
(declare-fun x76 () (_ BitVec 8))
(declare-fun x82 () (_ BitVec 8))
(declare-fun x83 () (_ BitVec 8))
(declare-fun x85 () (_ BitVec 8))
(declare-fun x87 () (_ BitVec 8))
(assert (bvult x02 (_ bv9 8)))
(assert (bvult x03 (_ bv9 8)))
(assert (bvult x04 (_ bv9 8)))
(assert (bvult x05 (_ bv9 8)))
(assert (bvult x07 (_ bv9 8)))
(assert (bvult x08 (_ bv9 8)))
(assert (bvult x10 (_ bv9 8)))
(assert (bvult x11 (_ bv9 8)))
(assert (bvult x12 (_ bv9 8)))
(assert (bvult x15 (_ bv9 8)))
(assert (bvult x16 (_ bv9 8)))
(assert (bvult x21 (_ bv9 8)))
(assert (bvult x22 (_ bv9 8)))
(assert (bvult x24 (_ bv9 8)))
(assert (bvult x26 (_ bv9 8)))
(assert (bvult x30 (_ bv9 8)))
(assert (bvult x31 (_ bv9 8)))
(assert (bvult x33 (_ bv9 8)))
(assert (bvult x35 (_ bv9 8)))
(assert (bvult x36 (_ bv9 8)))
(assert (bvult x37 (_ bv9 8)))
(assert (bvult x41 (_ bv9 8)))
(assert (bvult x43 (_ bv9 8)))
(assert (bvult x45 (_ bv9 8)))
(assert (bvult x48 (_ bv9 8)))
(assert (bvult x50 (_ bv9 8)))
(assert (bvult x52 (_ bv9 8)))
(assert (bvult x53 (_ bv9 8)))
(assert (bvult x54 (_ bv9 8)))
(assert (bvult x55 (_ bv9 8)))
(assert (bvult x56 (_ bv9 8)))
(assert (bvult x58 (_ bv9 8)))
(assert (bvult x62 (_ bv9 8)))
(assert (bvult x63 (_ bv9 8)))
(assert (bvult x64 (_ bv9 8)))
(assert (bvult x66 (_ bv9 8)))
(assert (bvult x67 (_ bv9 8)))
(assert (bvult x68 (_ bv9 8)))
(assert (bvult x70 (_ bv9 8)))
(assert (bvult x72 (_ bv9 8)))
(assert (bvult x74 (_ bv9 8)))
(assert (bvult x75 (_ bv9 8)))
(assert (bvult x76 (_ bv9 8)))
(assert (bvult x82 (_ bv9 8)))
(assert (bvult x83 (_ bv9 8)))
(assert (bvult x85 (_ bv9 8)))
(assert (bvult x87 (_ bv9 8)))
(assert (not (= (_ bv5 8) (_ bv3 8))))
(assert (not (= (_ bv5 8) x02)))
(assert (not (= (_ bv5 8) x03)))
(assert (not (= (_ bv5 8) x04)))
(assert (not (= (_ bv5 8) x05)))
(assert (not (= (_ bv5 8) (_ bv7 8))))
(assert (not (= (_ bv5 8) x07)))
(assert (not (= (_ bv5 8) x08)))
(assert (not (= (_ bv3 8) x02)))
(assert (not (= (_ bv3 8) x03)))
(assert (not (= (_ bv3 8) x04)))
(assert (not (= (_ bv3 8) x05)))
(assert (not (= (_ bv3 8) (_ bv7 8))))
(assert (not (= (_ bv3 8) x07)))
(assert (not (= (_ bv3 8) x08)))
(assert (not (= x02 x03)))
(assert (not (= x02 x04)))
(assert (not (= x02 x05)))
(assert (not (= x02 (_ bv7 8))))
(assert (not (= x02 x07)))
(assert (not (= x02 x08)))
(assert (not (= x03 x04)))
(assert (not (= x03 x05)))
(assert (not (= x03 (_ bv7 8))))
(assert (not (= x03 x07)))
(assert (not (= x03 x08)))
(assert (not (= x04 x05)))
(assert (not (= x04 (_ bv7 8))))
(assert (not (= x04 x07)))
(assert (not (= x04 x08)))
(assert (not (= x05 (_ bv7 8))))
(assert (not (= x05 x07)))
(assert (not (= x05 x08)))
(assert (not (= (_ bv7 8) x07)))
(assert (not (= (_ bv7 8) x08)))
(assert (not (= x07 x08)))
(assert (not (= x10 x11)))
(assert (not (= x10 x12)))
(assert (not (= x10 (_ bv9 8))))
(assert (not (= x10 (_ bv8 8))))
(assert (not (= x10 x15)))
(assert (not (= x10 x16)))
(assert (not (= x10 (_ bv6 8))))
(assert (not (= x10 (_ bv4 8))))
(assert (not (= x11 x12)))
(assert (not (= x11 (_ bv9 8))))
(assert (not (= x11 (_ bv8 8))))
(assert (not (= x11 x15)))
(assert (not (= x11 x16)))
(assert (not (= x11 (_ bv6 8))))
(assert (not (= x11 (_ bv4 8))))
(assert (not (= x12 (_ bv9 8))))
(assert (not (= x12 (_ bv8 8))))
(assert (not (= x12 x15)))
(assert (not (= x12 x16)))
(assert (not (= x12 (_ bv6 8))))
(assert (not (= x12 (_ bv4 8))))
(assert (not (= (_ bv9 8) (_ bv8 8))))
(assert (not (= (_ bv9 8) x15)))
(assert (not (= (_ bv9 8) x16)))
(assert (not (= (_ bv9 8) (_ bv6 8))))
(assert (not (= (_ bv9 8) (_ bv4 8))))
(assert (not (= (_ bv8 8) x15)))
(assert (not (= (_ bv8 8) x16)))
(assert (not (= (_ bv8 8) (_ bv6 8))))
(assert (not (= (_ bv8 8) (_ bv4 8))))
(assert (not (= x15 x16)))
(assert (not (= x15 (_ bv6 8))))
(assert (not (= x15 (_ bv4 8))))
(assert (not (= x16 (_ bv6 8))))
(assert (not (= x16 (_ bv4 8))))
(assert (not (= (_ bv6 8) (_ bv4 8))))
(assert (not (= (_ bv4 8) x21)))
(assert (not (= (_ bv4 8) x22)))
(assert (not (= (_ bv4 8) (_ bv7 8))))
(assert (not (= (_ bv4 8) x24)))
(assert (not (= (_ bv4 8) (_ bv1 8))))
(assert (not (= (_ bv4 8) x26)))
(assert (not (= (_ bv4 8) (_ bv2 8))))
(assert (not (= (_ bv4 8) (_ bv9 8))))
(assert (not (= x21 x22)))
(assert (not (= x21 (_ bv7 8))))
(assert (not (= x21 x24)))
(assert (not (= x21 (_ bv1 8))))
(assert (not (= x21 x26)))
(assert (not (= x21 (_ bv2 8))))
(assert (not (= x21 (_ bv9 8))))
(assert (not (= x22 (_ bv7 8))))
(assert (not (= x22 x24)))
(assert (not (= x22 (_ bv1 8))))
(assert (not (= x22 x26)))
(assert (not (= x22 (_ bv2 8))))
(assert (not (= x22 (_ bv9 8))))
(assert (not (= (_ bv7 8) x24)))
(assert (not (= (_ bv7 8) (_ bv1 8))))
(assert (not (= (_ bv7 8) x26)))
(assert (not (= (_ bv7 8) (_ bv2 8))))
(assert (not (= (_ bv7 8) (_ bv9 8))))
(assert (not (= x24 (_ bv1 8))))
(assert (not (= x24 x26)))
(assert (not (= x24 (_ bv2 8))))
(assert (not (= x24 (_ bv9 8))))
(assert (not (= (_ bv1 8) x26)))
(assert (not (= (_ bv1 8) (_ bv2 8))))
(assert (not (= (_ bv1 8) (_ bv9 8))))
(assert (not (= x26 (_ bv2 8))))
(assert (not (= x26 (_ bv9 8))))
(assert (not (= (_ bv2 8) (_ bv9 8))))
(assert (not (= x30 x31)))
(assert (not (= x30 (_ bv8 8))))
(assert (not (= x30 x33)))
(assert (not (= x30 (_ bv7 8))))
(assert (not (= x30 x35)))
(assert (not (= x30 x36)))
(assert (not (= x30 x37)))
(assert (not (= x30 (_ bv1 8))))
(assert (not (= x31 (_ bv8 8))))
(assert (not (= x31 x33)))
(assert (not (= x31 (_ bv7 8))))
(assert (not (= x31 x35)))
(assert (not (= x31 x36)))
(assert (not (= x31 x37)))
(assert (not (= x31 (_ bv1 8))))
(assert (not (= (_ bv8 8) x33)))
(assert (not (= (_ bv8 8) (_ bv7 8))))
(assert (not (= (_ bv8 8) x35)))
(assert (not (= (_ bv8 8) x36)))
(assert (not (= (_ bv8 8) x37)))
(assert (not (= (_ bv8 8) (_ bv1 8))))
(assert (not (= x33 (_ bv7 8))))
(assert (not (= x33 x35)))
(assert (not (= x33 x36)))
(assert (not (= x33 x37)))
(assert (not (= x33 (_ bv1 8))))
(assert (not (= (_ bv7 8) x35)))
(assert (not (= (_ bv7 8) x36)))
(assert (not (= (_ bv7 8) x37)))
(assert (not (= (_ bv7 8) (_ bv1 8))))
(assert (not (= x35 x36)))
(assert (not (= x35 x37)))
(assert (not (= x35 (_ bv1 8))))
(assert (not (= x36 x37)))
(assert (not (= x36 (_ bv1 8))))
(assert (not (= x37 (_ bv1 8))))
(assert (not (= (_ bv2 8) x41)))
(assert (not (= (_ bv2 8) (_ bv1 8))))
(assert (not (= (_ bv2 8) x43)))
(assert (not (= (_ bv2 8) (_ bv6 8))))
(assert (not (= (_ bv2 8) x45)))
(assert (not (= (_ bv2 8) (_ bv4 8))))
(assert (not (= (_ bv2 8) (_ bv3 8))))
(assert (not (= (_ bv2 8) x48)))
(assert (not (= x41 (_ bv1 8))))
(assert (not (= x41 x43)))
(assert (not (= x41 (_ bv6 8))))
(assert (not (= x41 x45)))
(assert (not (= x41 (_ bv4 8))))
(assert (not (= x41 (_ bv3 8))))
(assert (not (= x41 x48)))
(assert (not (= (_ bv1 8) x43)))
(assert (not (= (_ bv1 8) (_ bv6 8))))
(assert (not (= (_ bv1 8) x45)))
(assert (not (= (_ bv1 8) (_ bv4 8))))
(assert (not (= (_ bv1 8) (_ bv3 8))))
(assert (not (= (_ bv1 8) x48)))
(assert (not (= x43 (_ bv6 8))))
(assert (not (= x43 x45)))
(assert (not (= x43 (_ bv4 8))))
(assert (not (= x43 (_ bv3 8))))
(assert (not (= x43 x48)))
(assert (not (= (_ bv6 8) x45)))
(assert (not (= (_ bv6 8) (_ bv4 8))))
(assert (not (= (_ bv6 8) (_ bv3 8))))
(assert (not (= (_ bv6 8) x48)))
(assert (not (= x45 (_ bv4 8))))
(assert (not (= x45 (_ bv3 8))))
(assert (not (= x45 x48)))
(assert (not (= (_ bv4 8) (_ bv3 8))))
(assert (not (= (_ bv4 8) x48)))
(assert (not (= (_ bv3 8) x48)))
(assert (not (= x50 (_ bv5 8))))
(assert (not (= x50 x52)))
(assert (not (= x50 x53)))
(assert (not (= x50 x54)))
(assert (not (= x50 x55)))
(assert (not (= x50 x56)))
(assert (not (= x50 (_ bv8 8))))
(assert (not (= x50 x58)))
(assert (not (= (_ bv5 8) x52)))
(assert (not (= (_ bv5 8) x53)))
(assert (not (= (_ bv5 8) x54)))
(assert (not (= (_ bv5 8) x55)))
(assert (not (= (_ bv5 8) x56)))
(assert (not (= (_ bv5 8) (_ bv8 8))))
(assert (not (= (_ bv5 8) x58)))
(assert (not (= x52 x53)))
(assert (not (= x52 x54)))
(assert (not (= x52 x55)))
(assert (not (= x52 x56)))
(assert (not (= x52 (_ bv8 8))))
(assert (not (= x52 x58)))
(assert (not (= x53 x54)))
(assert (not (= x53 x55)))
(assert (not (= x53 x56)))
(assert (not (= x53 (_ bv8 8))))
(assert (not (= x53 x58)))
(assert (not (= x54 x55)))
(assert (not (= x54 x56)))
(assert (not (= x54 (_ bv8 8))))
(assert (not (= x54 x58)))
(assert (not (= x55 x56)))
(assert (not (= x55 (_ bv8 8))))
(assert (not (= x55 x58)))
(assert (not (= x56 (_ bv8 8))))
(assert (not (= x56 x58)))
(assert (not (= (_ bv8 8) x58)))
(assert (not (= (_ bv9 8) (_ bv4 8))))
(assert (not (= (_ bv9 8) x62)))
(assert (not (= (_ bv9 8) x63)))
(assert (not (= (_ bv9 8) x64)))
(assert (not (= (_ bv9 8) (_ bv2 8))))
(assert (not (= (_ bv9 8) x66)))
(assert (not (= (_ bv9 8) x67)))
(assert (not (= (_ bv9 8) x68)))
(assert (not (= (_ bv4 8) x62)))
(assert (not (= (_ bv4 8) x63)))
(assert (not (= (_ bv4 8) x64)))
(assert (not (= (_ bv4 8) (_ bv2 8))))
(assert (not (= (_ bv4 8) x66)))
(assert (not (= (_ bv4 8) x67)))
(assert (not (= (_ bv4 8) x68)))
(assert (not (= x62 x63)))
(assert (not (= x62 x64)))
(assert (not (= x62 (_ bv2 8))))
(assert (not (= x62 x66)))
(assert (not (= x62 x67)))
(assert (not (= x62 x68)))
(assert (not (= x63 x64)))
(assert (not (= x63 (_ bv2 8))))
(assert (not (= x63 x66)))
(assert (not (= x63 x67)))
(assert (not (= x63 x68)))
(assert (not (= x64 (_ bv2 8))))
(assert (not (= x64 x66)))
(assert (not (= x64 x67)))
(assert (not (= x64 x68)))
(assert (not (= (_ bv2 8) x66)))
(assert (not (= (_ bv2 8) x67)))
(assert (not (= (_ bv2 8) x68)))
(assert (not (= x66 x67)))
(assert (not (= x66 x68)))
(assert (not (= x67 x68)))
(assert (not (= x70 (_ bv1 8))))
(assert (not (= x70 x72)))
(assert (not (= x70 (_ bv3 8))))
(assert (not (= x70 x74)))
(assert (not (= x70 x75)))
(assert (not (= x70 x76)))
(assert (not (= x70 (_ bv9 8))))
(assert (not (= x70 (_ bv6 8))))
(assert (not (= (_ bv1 8) x72)))
(assert (not (= (_ bv1 8) (_ bv3 8))))
(assert (not (= (_ bv1 8) x74)))
(assert (not (= (_ bv1 8) x75)))
(assert (not (= (_ bv1 8) x76)))
(assert (not (= (_ bv1 8) (_ bv9 8))))
(assert (not (= (_ bv1 8) (_ bv6 8))))
(assert (not (= x72 (_ bv3 8))))
(assert (not (= x72 x74)))
(assert (not (= x72 x75)))
(assert (not (= x72 x76)))
(assert (not (= x72 (_ bv9 8))))
(assert (not (= x72 (_ bv6 8))))
(assert (not (= (_ bv3 8) x74)))
(assert (not (= (_ bv3 8) x75)))
(assert (not (= (_ bv3 8) x76)))
(assert (not (= (_ bv3 8) (_ bv9 8))))
(assert (not (= (_ bv3 8) (_ bv6 8))))
(assert (not (= x74 x75)))
(assert (not (= x74 x76)))
(assert (not (= x74 (_ bv9 8))))
(assert (not (= x74 (_ bv6 8))))
(assert (not (= x75 x76)))
(assert (not (= x75 (_ bv9 8))))
(assert (not (= x75 (_ bv6 8))))
(assert (not (= x76 (_ bv9 8))))
(assert (not (= x76 (_ bv6 8))))
(assert (not (= (_ bv9 8) (_ bv6 8))))
(assert (not (= (_ bv6 8) (_ bv7 8))))
(assert (not (= (_ bv6 8) x82)))
(assert (not (= (_ bv6 8) x83)))
(assert (not (= (_ bv6 8) (_ bv5 8))))
(assert (not (= (_ bv6 8) x85)))
(assert (not (= (_ bv6 8) (_ bv1 8))))
(assert (not (= (_ bv6 8) x87)))
(assert (not (= (_ bv6 8) (_ bv3 8))))
(assert (not (= (_ bv7 8) x82)))
(assert (not (= (_ bv7 8) x83)))
(assert (not (= (_ bv7 8) (_ bv5 8))))
(assert (not (= (_ bv7 8) x85)))
(assert (not (= (_ bv7 8) (_ bv1 8))))
(assert (not (= (_ bv7 8) x87)))
(assert (not (= (_ bv7 8) (_ bv3 8))))
(assert (not (= x82 x83)))
(assert (not (= x82 (_ bv5 8))))
(assert (not (= x82 x85)))
(assert (not (= x82 (_ bv1 8))))
(assert (not (= x82 x87)))
(assert (not (= x82 (_ bv3 8))))
(assert (not (= x83 (_ bv5 8))))
(assert (not (= x83 x85)))
(assert (not (= x83 (_ bv1 8))))
(assert (not (= x83 x87)))
(assert (not (= x83 (_ bv3 8))))
(assert (not (= (_ bv5 8) x85)))
(assert (not (= (_ bv5 8) (_ bv1 8))))
(assert (not (= (_ bv5 8) x87)))
(assert (not (= (_ bv5 8) (_ bv3 8))))
(assert (not (= x85 (_ bv1 8))))
(assert (not (= x85 x87)))
(assert (not (= x85 (_ bv3 8))))
(assert (not (= (_ bv1 8) x87)))
(assert (not (= (_ bv1 8) (_ bv3 8))))
(assert (not (= x87 (_ bv3 8))))
(assert (not (= (_ bv5 8) x10)))
(assert (not (= (_ bv5 8) (_ bv4 8))))
(assert (not (= (_ bv5 8) x30)))
(assert (not (= (_ bv5 8) (_ bv2 8))))
(assert (not (= (_ bv5 8) x50)))
(assert (not (= (_ bv5 8) (_ bv9 8))))
(assert (not (= (_ bv5 8) x70)))
(assert (not (= (_ bv5 8) (_ bv6 8))))
(assert (not (= x10 (_ bv4 8))))
(assert (not (= x10 x30)))
(assert (not (= x10 (_ bv2 8))))
(assert (not (= x10 x50)))
(assert (not (= x10 (_ bv9 8))))
(assert (not (= x10 x70)))
(assert (not (= x10 (_ bv6 8))))
(assert (not (= (_ bv4 8) x30)))
(assert (not (= (_ bv4 8) (_ bv2 8))))
(assert (not (= (_ bv4 8) x50)))
(assert (not (= (_ bv4 8) (_ bv9 8))))
(assert (not (= (_ bv4 8) x70)))
(assert (not (= (_ bv4 8) (_ bv6 8))))
(assert (not (= x30 (_ bv2 8))))
(assert (not (= x30 x50)))
(assert (not (= x30 (_ bv9 8))))
(assert (not (= x30 x70)))
(assert (not (= x30 (_ bv6 8))))
(assert (not (= (_ bv2 8) x50)))
(assert (not (= (_ bv2 8) (_ bv9 8))))
(assert (not (= (_ bv2 8) x70)))
(assert (not (= (_ bv2 8) (_ bv6 8))))
(assert (not (= x50 (_ bv9 8))))
(assert (not (= x50 x70)))
(assert (not (= x50 (_ bv6 8))))
(assert (not (= (_ bv9 8) x70)))
(assert (not (= (_ bv9 8) (_ bv6 8))))
(assert (not (= x70 (_ bv6 8))))
(assert (not (= (_ bv3 8) x11)))
(assert (not (= (_ bv3 8) x21)))
(assert (not (= (_ bv3 8) x31)))
(assert (not (= (_ bv3 8) x41)))
(assert (not (= (_ bv3 8) (_ bv5 8))))
(assert (not (= (_ bv3 8) (_ bv4 8))))
(assert (not (= (_ bv3 8) (_ bv1 8))))
(assert (not (= (_ bv3 8) (_ bv7 8))))
(assert (not (= x11 x21)))
(assert (not (= x11 x31)))
(assert (not (= x11 x41)))
(assert (not (= x11 (_ bv5 8))))
(assert (not (= x11 (_ bv4 8))))
(assert (not (= x11 (_ bv1 8))))
(assert (not (= x11 (_ bv7 8))))
(assert (not (= x21 x31)))
(assert (not (= x21 x41)))
(assert (not (= x21 (_ bv5 8))))
(assert (not (= x21 (_ bv4 8))))
(assert (not (= x21 (_ bv1 8))))
(assert (not (= x21 (_ bv7 8))))
(assert (not (= x31 x41)))
(assert (not (= x31 (_ bv5 8))))
(assert (not (= x31 (_ bv4 8))))
(assert (not (= x31 (_ bv1 8))))
(assert (not (= x31 (_ bv7 8))))
(assert (not (= x41 (_ bv5 8))))
(assert (not (= x41 (_ bv4 8))))
(assert (not (= x41 (_ bv1 8))))
(assert (not (= x41 (_ bv7 8))))
(assert (not (= (_ bv5 8) (_ bv4 8))))
(assert (not (= (_ bv5 8) (_ bv1 8))))
(assert (not (= (_ bv5 8) (_ bv7 8))))
(assert (not (= (_ bv4 8) (_ bv1 8))))
(assert (not (= (_ bv4 8) (_ bv7 8))))
(assert (not (= (_ bv1 8) (_ bv7 8))))
(assert (not (= x02 x12)))
(assert (not (= x02 x22)))
(assert (not (= x02 (_ bv8 8))))
(assert (not (= x02 (_ bv1 8))))
(assert (not (= x02 x52)))
(assert (not (= x02 x62)))
(assert (not (= x02 x72)))
(assert (not (= x02 x82)))
(assert (not (= x12 x22)))
(assert (not (= x12 (_ bv8 8))))
(assert (not (= x12 (_ bv1 8))))
(assert (not (= x12 x52)))
(assert (not (= x12 x62)))
(assert (not (= x12 x72)))
(assert (not (= x12 x82)))
(assert (not (= x22 (_ bv8 8))))
(assert (not (= x22 (_ bv1 8))))
(assert (not (= x22 x52)))
(assert (not (= x22 x62)))
(assert (not (= x22 x72)))
(assert (not (= x22 x82)))
(assert (not (= (_ bv8 8) (_ bv1 8))))
(assert (not (= (_ bv8 8) x52)))
(assert (not (= (_ bv8 8) x62)))
(assert (not (= (_ bv8 8) x72)))
(assert (not (= (_ bv8 8) x82)))
(assert (not (= (_ bv1 8) x52)))
(assert (not (= (_ bv1 8) x62)))
(assert (not (= (_ bv1 8) x72)))
(assert (not (= (_ bv1 8) x82)))
(assert (not (= x52 x62)))
(assert (not (= x52 x72)))
(assert (not (= x52 x82)))
(assert (not (= x62 x72)))
(assert (not (= x62 x82)))
(assert (not (= x72 x82)))
(assert (not (= x03 (_ bv9 8))))
(assert (not (= x03 (_ bv7 8))))
(assert (not (= x03 x33)))
(assert (not (= x03 x43)))
(assert (not (= x03 x53)))
(assert (not (= x03 x63)))
(assert (not (= x03 (_ bv3 8))))
(assert (not (= x03 x83)))
(assert (not (= (_ bv9 8) (_ bv7 8))))
(assert (not (= (_ bv9 8) x33)))
(assert (not (= (_ bv9 8) x43)))
(assert (not (= (_ bv9 8) x53)))
(assert (not (= (_ bv9 8) x63)))
(assert (not (= (_ bv9 8) (_ bv3 8))))
(assert (not (= (_ bv9 8) x83)))
(assert (not (= (_ bv7 8) x33)))
(assert (not (= (_ bv7 8) x43)))
(assert (not (= (_ bv7 8) x53)))
(assert (not (= (_ bv7 8) x63)))
(assert (not (= (_ bv7 8) (_ bv3 8))))
(assert (not (= (_ bv7 8) x83)))
(assert (not (= x33 x43)))
(assert (not (= x33 x53)))
(assert (not (= x33 x63)))
(assert (not (= x33 (_ bv3 8))))
(assert (not (= x33 x83)))
(assert (not (= x43 x53)))
(assert (not (= x43 x63)))
(assert (not (= x43 (_ bv3 8))))
(assert (not (= x43 x83)))
(assert (not (= x53 x63)))
(assert (not (= x53 (_ bv3 8))))
(assert (not (= x53 x83)))
(assert (not (= x63 (_ bv3 8))))
(assert (not (= x63 x83)))
(assert (not (= (_ bv3 8) x83)))
(assert (not (= x04 (_ bv8 8))))
(assert (not (= x04 x24)))
(assert (not (= x04 (_ bv7 8))))
(assert (not (= x04 (_ bv6 8))))
(assert (not (= x04 x54)))
(assert (not (= x04 x64)))
(assert (not (= x04 x74)))
(assert (not (= x04 (_ bv5 8))))
(assert (not (= (_ bv8 8) x24)))
(assert (not (= (_ bv8 8) (_ bv7 8))))
(assert (not (= (_ bv8 8) (_ bv6 8))))
(assert (not (= (_ bv8 8) x54)))
(assert (not (= (_ bv8 8) x64)))
(assert (not (= (_ bv8 8) x74)))
(assert (not (= (_ bv8 8) (_ bv5 8))))
(assert (not (= x24 (_ bv7 8))))
(assert (not (= x24 (_ bv6 8))))
(assert (not (= x24 x54)))
(assert (not (= x24 x64)))
(assert (not (= x24 x74)))
(assert (not (= x24 (_ bv5 8))))
(assert (not (= (_ bv7 8) (_ bv6 8))))
(assert (not (= (_ bv7 8) x54)))
(assert (not (= (_ bv7 8) x64)))
(assert (not (= (_ bv7 8) x74)))
(assert (not (= (_ bv7 8) (_ bv5 8))))
(assert (not (= (_ bv6 8) x54)))
(assert (not (= (_ bv6 8) x64)))
(assert (not (= (_ bv6 8) x74)))
(assert (not (= (_ bv6 8) (_ bv5 8))))
(assert (not (= x54 x64)))
(assert (not (= x54 x74)))
(assert (not (= x54 (_ bv5 8))))
(assert (not (= x64 x74)))
(assert (not (= x64 (_ bv5 8))))
(assert (not (= x74 (_ bv5 8))))
(assert (not (= x05 x15)))
(assert (not (= x05 (_ bv1 8))))
(assert (not (= x05 x35)))
(assert (not (= x05 x45)))
(assert (not (= x05 x55)))
(assert (not (= x05 (_ bv2 8))))
(assert (not (= x05 x75)))
(assert (not (= x05 x85)))
(assert (not (= x15 (_ bv1 8))))
(assert (not (= x15 x35)))
(assert (not (= x15 x45)))
(assert (not (= x15 x55)))
(assert (not (= x15 (_ bv2 8))))
(assert (not (= x15 x75)))
(assert (not (= x15 x85)))
(assert (not (= (_ bv1 8) x35)))
(assert (not (= (_ bv1 8) x45)))
(assert (not (= (_ bv1 8) x55)))
(assert (not (= (_ bv1 8) (_ bv2 8))))
(assert (not (= (_ bv1 8) x75)))
(assert (not (= (_ bv1 8) x85)))
(assert (not (= x35 x45)))
(assert (not (= x35 x55)))
(assert (not (= x35 (_ bv2 8))))
(assert (not (= x35 x75)))
(assert (not (= x35 x85)))
(assert (not (= x45 x55)))
(assert (not (= x45 (_ bv2 8))))
(assert (not (= x45 x75)))
(assert (not (= x45 x85)))
(assert (not (= x55 (_ bv2 8))))
(assert (not (= x55 x75)))
(assert (not (= x55 x85)))
(assert (not (= (_ bv2 8) x75)))
(assert (not (= (_ bv2 8) x85)))
(assert (not (= x75 x85)))
(assert (not (= (_ bv7 8) x16)))
(assert (not (= (_ bv7 8) x26)))
(assert (not (= (_ bv7 8) x36)))
(assert (not (= (_ bv7 8) (_ bv4 8))))
(assert (not (= (_ bv7 8) x56)))
(assert (not (= (_ bv7 8) x66)))
(assert (not (= (_ bv7 8) x76)))
(assert (not (= (_ bv7 8) (_ bv1 8))))
(assert (not (= x16 x26)))
(assert (not (= x16 x36)))
(assert (not (= x16 (_ bv4 8))))
(assert (not (= x16 x56)))
(assert (not (= x16 x66)))
(assert (not (= x16 x76)))
(assert (not (= x16 (_ bv1 8))))
(assert (not (= x26 x36)))
(assert (not (= x26 (_ bv4 8))))
(assert (not (= x26 x56)))
(assert (not (= x26 x66)))
(assert (not (= x26 x76)))
(assert (not (= x26 (_ bv1 8))))
(assert (not (= x36 (_ bv4 8))))
(assert (not (= x36 x56)))
(assert (not (= x36 x66)))
(assert (not (= x36 x76)))
(assert (not (= x36 (_ bv1 8))))
(assert (not (= (_ bv4 8) x56)))
(assert (not (= (_ bv4 8) x66)))
(assert (not (= (_ bv4 8) x76)))
(assert (not (= (_ bv4 8) (_ bv1 8))))
(assert (not (= x56 x66)))
(assert (not (= x56 x76)))
(assert (not (= x56 (_ bv1 8))))
(assert (not (= x66 x76)))
(assert (not (= x66 (_ bv1 8))))
(assert (not (= x76 (_ bv1 8))))
(assert (not (= x07 (_ bv6 8))))
(assert (not (= x07 (_ bv2 8))))
(assert (not (= x07 x37)))
(assert (not (= x07 (_ bv3 8))))
(assert (not (= x07 (_ bv8 8))))
(assert (not (= x07 x67)))
(assert (not (= x07 (_ bv9 8))))
(assert (not (= x07 x87)))
(assert (not (= (_ bv6 8) (_ bv2 8))))
(assert (not (= (_ bv6 8) x37)))
(assert (not (= (_ bv6 8) (_ bv3 8))))
(assert (not (= (_ bv6 8) (_ bv8 8))))
(assert (not (= (_ bv6 8) x67)))
(assert (not (= (_ bv6 8) (_ bv9 8))))
(assert (not (= (_ bv6 8) x87)))
(assert (not (= (_ bv2 8) x37)))
(assert (not (= (_ bv2 8) (_ bv3 8))))
(assert (not (= (_ bv2 8) (_ bv8 8))))
(assert (not (= (_ bv2 8) x67)))
(assert (not (= (_ bv2 8) (_ bv9 8))))
(assert (not (= (_ bv2 8) x87)))
(assert (not (= x37 (_ bv3 8))))
(assert (not (= x37 (_ bv8 8))))
(assert (not (= x37 x67)))
(assert (not (= x37 (_ bv9 8))))
(assert (not (= x37 x87)))
(assert (not (= (_ bv3 8) (_ bv8 8))))
(assert (not (= (_ bv3 8) x67)))
(assert (not (= (_ bv3 8) (_ bv9 8))))
(assert (not (= (_ bv3 8) x87)))
(assert (not (= (_ bv8 8) x67)))
(assert (not (= (_ bv8 8) (_ bv9 8))))
(assert (not (= (_ bv8 8) x87)))
(assert (not (= x67 (_ bv9 8))))
(assert (not (= x67 x87)))
(assert (not (= (_ bv9 8) x87)))
(assert (not (= x08 (_ bv4 8))))
(assert (not (= x08 (_ bv9 8))))
(assert (not (= x08 (_ bv1 8))))
(assert (not (= x08 x48)))
(assert (not (= x08 x58)))
(assert (not (= x08 x68)))
(assert (not (= x08 (_ bv6 8))))
(assert (not (= x08 (_ bv3 8))))
(assert (not (= (_ bv4 8) (_ bv9 8))))
(assert (not (= (_ bv4 8) (_ bv1 8))))
(assert (not (= (_ bv4 8) x48)))
(assert (not (= (_ bv4 8) x58)))
(assert (not (= (_ bv4 8) x68)))
(assert (not (= (_ bv4 8) (_ bv6 8))))
(assert (not (= (_ bv4 8) (_ bv3 8))))
(assert (not (= (_ bv9 8) (_ bv1 8))))
(assert (not (= (_ bv9 8) x48)))
(assert (not (= (_ bv9 8) x58)))
(assert (not (= (_ bv9 8) x68)))
(assert (not (= (_ bv9 8) (_ bv6 8))))
(assert (not (= (_ bv9 8) (_ bv3 8))))
(assert (not (= (_ bv1 8) x48)))
(assert (not (= (_ bv1 8) x58)))
(assert (not (= (_ bv1 8) x68)))
(assert (not (= (_ bv1 8) (_ bv6 8))))
(assert (not (= (_ bv1 8) (_ bv3 8))))
(assert (not (= x48 x58)))
(assert (not (= x48 x68)))
(assert (not (= x48 (_ bv6 8))))
(assert (not (= x48 (_ bv3 8))))
(assert (not (= x58 x68)))
(assert (not (= x58 (_ bv6 8))))
(assert (not (= x58 (_ bv3 8))))
(assert (not (= x68 (_ bv6 8))))
(assert (not (= x68 (_ bv3 8))))
(assert (not (= (_ bv6 8) (_ bv3 8))))
(assert (not (= (_ bv5 8) (_ bv3 8))))
(assert (not (= (_ bv5 8) x02)))
(assert (not (= (_ bv5 8) x10)))
(assert (not (= (_ bv5 8) x11)))
(assert (not (= (_ bv5 8) x12)))
(assert (not (= (_ bv5 8) (_ bv4 8))))
(assert (not (= (_ bv5 8) x21)))
(assert (not (= (_ bv5 8) x22)))
(assert (not (= (_ bv3 8) x02)))
(assert (not (= (_ bv3 8) x10)))
(assert (not (= (_ bv3 8) x11)))
(assert (not (= (_ bv3 8) x12)))
(assert (not (= (_ bv3 8) (_ bv4 8))))
(assert (not (= (_ bv3 8) x21)))
(assert (not (= (_ bv3 8) x22)))
(assert (not (= x02 x10)))
(assert (not (= x02 x11)))
(assert (not (= x02 x12)))
(assert (not (= x02 (_ bv4 8))))
(assert (not (= x02 x21)))
(assert (not (= x02 x22)))
(assert (not (= x10 x11)))
(assert (not (= x10 x12)))
(assert (not (= x10 (_ bv4 8))))
(assert (not (= x10 x21)))
(assert (not (= x10 x22)))
(assert (not (= x11 x12)))
(assert (not (= x11 (_ bv4 8))))
(assert (not (= x11 x21)))
(assert (not (= x11 x22)))
(assert (not (= x12 (_ bv4 8))))
(assert (not (= x12 x21)))
(assert (not (= x12 x22)))
(assert (not (= (_ bv4 8) x21)))
(assert (not (= (_ bv4 8) x22)))
(assert (not (= x21 x22)))
(assert (not (= x03 x04)))
(assert (not (= x03 x05)))
(assert (not (= x03 (_ bv9 8))))
(assert (not (= x03 (_ bv8 8))))
(assert (not (= x03 x15)))
(assert (not (= x03 (_ bv7 8))))
(assert (not (= x03 x24)))
(assert (not (= x03 (_ bv1 8))))
(assert (not (= x04 x05)))
(assert (not (= x04 (_ bv9 8))))
(assert (not (= x04 (_ bv8 8))))
(assert (not (= x04 x15)))
(assert (not (= x04 (_ bv7 8))))
(assert (not (= x04 x24)))
(assert (not (= x04 (_ bv1 8))))
(assert (not (= x05 (_ bv9 8))))
(assert (not (= x05 (_ bv8 8))))
(assert (not (= x05 x15)))
(assert (not (= x05 (_ bv7 8))))
(assert (not (= x05 x24)))
(assert (not (= x05 (_ bv1 8))))
(assert (not (= (_ bv9 8) (_ bv8 8))))
(assert (not (= (_ bv9 8) x15)))
(assert (not (= (_ bv9 8) (_ bv7 8))))
(assert (not (= (_ bv9 8) x24)))
(assert (not (= (_ bv9 8) (_ bv1 8))))
(assert (not (= (_ bv8 8) x15)))
(assert (not (= (_ bv8 8) (_ bv7 8))))
(assert (not (= (_ bv8 8) x24)))
(assert (not (= (_ bv8 8) (_ bv1 8))))
(assert (not (= x15 (_ bv7 8))))
(assert (not (= x15 x24)))
(assert (not (= x15 (_ bv1 8))))
(assert (not (= (_ bv7 8) x24)))
(assert (not (= (_ bv7 8) (_ bv1 8))))
(assert (not (= x24 (_ bv1 8))))
(assert (not (= (_ bv7 8) x07)))
(assert (not (= (_ bv7 8) x08)))
(assert (not (= (_ bv7 8) x16)))
(assert (not (= (_ bv7 8) (_ bv6 8))))
(assert (not (= (_ bv7 8) (_ bv4 8))))
(assert (not (= (_ bv7 8) x26)))
(assert (not (= (_ bv7 8) (_ bv2 8))))
(assert (not (= (_ bv7 8) (_ bv9 8))))
(assert (not (= x07 x08)))
(assert (not (= x07 x16)))
(assert (not (= x07 (_ bv6 8))))
(assert (not (= x07 (_ bv4 8))))
(assert (not (= x07 x26)))
(assert (not (= x07 (_ bv2 8))))
(assert (not (= x07 (_ bv9 8))))
(assert (not (= x08 x16)))
(assert (not (= x08 (_ bv6 8))))
(assert (not (= x08 (_ bv4 8))))
(assert (not (= x08 x26)))
(assert (not (= x08 (_ bv2 8))))
(assert (not (= x08 (_ bv9 8))))
(assert (not (= x16 (_ bv6 8))))
(assert (not (= x16 (_ bv4 8))))
(assert (not (= x16 x26)))
(assert (not (= x16 (_ bv2 8))))
(assert (not (= x16 (_ bv9 8))))
(assert (not (= (_ bv6 8) (_ bv4 8))))
(assert (not (= (_ bv6 8) x26)))
(assert (not (= (_ bv6 8) (_ bv2 8))))
(assert (not (= (_ bv6 8) (_ bv9 8))))
(assert (not (= (_ bv4 8) x26)))
(assert (not (= (_ bv4 8) (_ bv2 8))))
(assert (not (= (_ bv4 8) (_ bv9 8))))
(assert (not (= x26 (_ bv2 8))))
(assert (not (= x26 (_ bv9 8))))
(assert (not (= (_ bv2 8) (_ bv9 8))))
(assert (not (= x30 x31)))
(assert (not (= x30 (_ bv8 8))))
(assert (not (= x30 (_ bv2 8))))
(assert (not (= x30 x41)))
(assert (not (= x30 (_ bv1 8))))
(assert (not (= x30 x50)))
(assert (not (= x30 (_ bv5 8))))
(assert (not (= x30 x52)))
(assert (not (= x31 (_ bv8 8))))
(assert (not (= x31 (_ bv2 8))))
(assert (not (= x31 x41)))
(assert (not (= x31 (_ bv1 8))))
(assert (not (= x31 x50)))
(assert (not (= x31 (_ bv5 8))))
(assert (not (= x31 x52)))
(assert (not (= (_ bv8 8) (_ bv2 8))))
(assert (not (= (_ bv8 8) x41)))
(assert (not (= (_ bv8 8) (_ bv1 8))))
(assert (not (= (_ bv8 8) x50)))
(assert (not (= (_ bv8 8) (_ bv5 8))))
(assert (not (= (_ bv8 8) x52)))
(assert (not (= (_ bv2 8) x41)))
(assert (not (= (_ bv2 8) (_ bv1 8))))
(assert (not (= (_ bv2 8) x50)))
(assert (not (= (_ bv2 8) (_ bv5 8))))
(assert (not (= (_ bv2 8) x52)))
(assert (not (= x41 (_ bv1 8))))
(assert (not (= x41 x50)))
(assert (not (= x41 (_ bv5 8))))
(assert (not (= x41 x52)))
(assert (not (= (_ bv1 8) x50)))
(assert (not (= (_ bv1 8) (_ bv5 8))))
(assert (not (= (_ bv1 8) x52)))
(assert (not (= x50 (_ bv5 8))))
(assert (not (= x50 x52)))
(assert (not (= (_ bv5 8) x52)))
(assert (not (= x33 (_ bv7 8))))
(assert (not (= x33 x35)))
(assert (not (= x33 x43)))
(assert (not (= x33 (_ bv6 8))))
(assert (not (= x33 x45)))
(assert (not (= x33 x53)))
(assert (not (= x33 x54)))
(assert (not (= x33 x55)))
(assert (not (= (_ bv7 8) x35)))
(assert (not (= (_ bv7 8) x43)))
(assert (not (= (_ bv7 8) (_ bv6 8))))
(assert (not (= (_ bv7 8) x45)))
(assert (not (= (_ bv7 8) x53)))
(assert (not (= (_ bv7 8) x54)))
(assert (not (= (_ bv7 8) x55)))
(assert (not (= x35 x43)))
(assert (not (= x35 (_ bv6 8))))
(assert (not (= x35 x45)))
(assert (not (= x35 x53)))
(assert (not (= x35 x54)))
(assert (not (= x35 x55)))
(assert (not (= x43 (_ bv6 8))))
(assert (not (= x43 x45)))
(assert (not (= x43 x53)))
(assert (not (= x43 x54)))
(assert (not (= x43 x55)))
(assert (not (= (_ bv6 8) x45)))
(assert (not (= (_ bv6 8) x53)))
(assert (not (= (_ bv6 8) x54)))
(assert (not (= (_ bv6 8) x55)))
(assert (not (= x45 x53)))
(assert (not (= x45 x54)))
(assert (not (= x45 x55)))
(assert (not (= x53 x54)))
(assert (not (= x53 x55)))
(assert (not (= x54 x55)))
(assert (not (= x36 x37)))
(assert (not (= x36 (_ bv1 8))))
(assert (not (= x36 (_ bv4 8))))
(assert (not (= x36 (_ bv3 8))))
(assert (not (= x36 x48)))
(assert (not (= x36 x56)))
(assert (not (= x36 (_ bv8 8))))
(assert (not (= x36 x58)))
(assert (not (= x37 (_ bv1 8))))
(assert (not (= x37 (_ bv4 8))))
(assert (not (= x37 (_ bv3 8))))
(assert (not (= x37 x48)))
(assert (not (= x37 x56)))
(assert (not (= x37 (_ bv8 8))))
(assert (not (= x37 x58)))
(assert (not (= (_ bv1 8) (_ bv4 8))))
(assert (not (= (_ bv1 8) (_ bv3 8))))
(assert (not (= (_ bv1 8) x48)))
(assert (not (= (_ bv1 8) x56)))
(assert (not (= (_ bv1 8) (_ bv8 8))))
(assert (not (= (_ bv1 8) x58)))
(assert (not (= (_ bv4 8) (_ bv3 8))))
(assert (not (= (_ bv4 8) x48)))
(assert (not (= (_ bv4 8) x56)))
(assert (not (= (_ bv4 8) (_ bv8 8))))
(assert (not (= (_ bv4 8) x58)))
(assert (not (= (_ bv3 8) x48)))
(assert (not (= (_ bv3 8) x56)))
(assert (not (= (_ bv3 8) (_ bv8 8))))
(assert (not (= (_ bv3 8) x58)))
(assert (not (= x48 x56)))
(assert (not (= x48 (_ bv8 8))))
(assert (not (= x48 x58)))
(assert (not (= x56 (_ bv8 8))))
(assert (not (= x56 x58)))
(assert (not (= (_ bv8 8) x58)))
(assert (not (= (_ bv9 8) (_ bv4 8))))
(assert (not (= (_ bv9 8) x62)))
(assert (not (= (_ bv9 8) x70)))
(assert (not (= (_ bv9 8) (_ bv1 8))))
(assert (not (= (_ bv9 8) x72)))
(assert (not (= (_ bv9 8) (_ bv6 8))))
(assert (not (= (_ bv9 8) (_ bv7 8))))
(assert (not (= (_ bv9 8) x82)))
(assert (not (= (_ bv4 8) x62)))
(assert (not (= (_ bv4 8) x70)))
(assert (not (= (_ bv4 8) (_ bv1 8))))
(assert (not (= (_ bv4 8) x72)))
(assert (not (= (_ bv4 8) (_ bv6 8))))
(assert (not (= (_ bv4 8) (_ bv7 8))))
(assert (not (= (_ bv4 8) x82)))
(assert (not (= x62 x70)))
(assert (not (= x62 (_ bv1 8))))
(assert (not (= x62 x72)))
(assert (not (= x62 (_ bv6 8))))
(assert (not (= x62 (_ bv7 8))))
(assert (not (= x62 x82)))
(assert (not (= x70 (_ bv1 8))))
(assert (not (= x70 x72)))
(assert (not (= x70 (_ bv6 8))))
(assert (not (= x70 (_ bv7 8))))
(assert (not (= x70 x82)))
(assert (not (= (_ bv1 8) x72)))
(assert (not (= (_ bv1 8) (_ bv6 8))))
(assert (not (= (_ bv1 8) (_ bv7 8))))
(assert (not (= (_ bv1 8) x82)))
(assert (not (= x72 (_ bv6 8))))
(assert (not (= x72 (_ bv7 8))))
(assert (not (= x72 x82)))
(assert (not (= (_ bv6 8) (_ bv7 8))))
(assert (not (= (_ bv6 8) x82)))
(assert (not (= (_ bv7 8) x82)))
(assert (not (= x63 x64)))
(assert (not (= x63 (_ bv2 8))))
(assert (not (= x63 (_ bv3 8))))
(assert (not (= x63 x74)))
(assert (not (= x63 x75)))
(assert (not (= x63 x83)))
(assert (not (= x63 (_ bv5 8))))
(assert (not (= x63 x85)))
(assert (not (= x64 (_ bv2 8))))
(assert (not (= x64 (_ bv3 8))))
(assert (not (= x64 x74)))
(assert (not (= x64 x75)))
(assert (not (= x64 x83)))
(assert (not (= x64 (_ bv5 8))))
(assert (not (= x64 x85)))
(assert (not (= (_ bv2 8) (_ bv3 8))))
(assert (not (= (_ bv2 8) x74)))
(assert (not (= (_ bv2 8) x75)))
(assert (not (= (_ bv2 8) x83)))
(assert (not (= (_ bv2 8) (_ bv5 8))))
(assert (not (= (_ bv2 8) x85)))
(assert (not (= (_ bv3 8) x74)))
(assert (not (= (_ bv3 8) x75)))
(assert (not (= (_ bv3 8) x83)))
(assert (not (= (_ bv3 8) (_ bv5 8))))
(assert (not (= (_ bv3 8) x85)))
(assert (not (= x74 x75)))
(assert (not (= x74 x83)))
(assert (not (= x74 (_ bv5 8))))
(assert (not (= x74 x85)))
(assert (not (= x75 x83)))
(assert (not (= x75 (_ bv5 8))))
(assert (not (= x75 x85)))
(assert (not (= x83 (_ bv5 8))))
(assert (not (= x83 x85)))
(assert (not (= (_ bv5 8) x85)))
(assert (not (= x66 x67)))
(assert (not (= x66 x68)))
(assert (not (= x66 x76)))
(assert (not (= x66 (_ bv9 8))))
(assert (not (= x66 (_ bv6 8))))
(assert (not (= x66 (_ bv1 8))))
(assert (not (= x66 x87)))
(assert (not (= x66 (_ bv3 8))))
(assert (not (= x67 x68)))
(assert (not (= x67 x76)))
(assert (not (= x67 (_ bv9 8))))
(assert (not (= x67 (_ bv6 8))))
(assert (not (= x67 (_ bv1 8))))
(assert (not (= x67 x87)))
(assert (not (= x67 (_ bv3 8))))
(assert (not (= x68 x76)))
(assert (not (= x68 (_ bv9 8))))
(assert (not (= x68 (_ bv6 8))))
(assert (not (= x68 (_ bv1 8))))
(assert (not (= x68 x87)))
(assert (not (= x68 (_ bv3 8))))
(assert (not (= x76 (_ bv9 8))))
(assert (not (= x76 (_ bv6 8))))
(assert (not (= x76 (_ bv1 8))))
(assert (not (= x76 x87)))
(assert (not (= x76 (_ bv3 8))))
(assert (not (= (_ bv9 8) (_ bv6 8))))
(assert (not (= (_ bv9 8) (_ bv1 8))))
(assert (not (= (_ bv9 8) x87)))
(assert (not (= (_ bv9 8) (_ bv3 8))))
(assert (not (= (_ bv6 8) (_ bv1 8))))
(assert (not (= (_ bv6 8) x87)))
(assert (not (= (_ bv6 8) (_ bv3 8))))
(assert (not (= (_ bv1 8) x87)))
(assert (not (= (_ bv1 8) (_ bv3 8))))
(assert (not (= x87 (_ bv3 8))))
(check-sat)
(exit)
